12 24 9 10
14 5 11 9 7 1 11 19 16 10 20 9 6 7 15 19 11 20 16 4 1 5 6 16 
0.09 1.15 6.41 4.44 2.46 7.2 2.63 0.88 5.85 7.08 1.94 6.58 5.96 7.82 0.84 6.34 5.98 7.09 6.78 6.06 7.94 3.09 2.39 4.6 
2.82 1.83 7.39 3.59 4.41 0.68 7.19 6.81 2.52 5.77 2.42 0.18 5.5 0.84 7.72 3.38 4.64 2.61 2.16 1.62 2.54 4.11 5.86 5.95 
4.23 0.52 7.79 4.76 1.37 0.72 3.13 5.83 5.89 4.06 1.95 7.39 3.43 5.35 1.42 3 3.41 7.07 3.71 7.76 1.49 7.8 2.67 6.8 
6.01 4.36 3.32 2.4 1.73 4.96 2.66 5.66 1.19 3.78 2.48 4.98 2.39 4.19 2.9 4.73 3.1 1.35 3.98 7.87 7.14 1.21 7.79 0.41 
5.6 4.43 2.17 6.41 3.34 1.3 2.91 4.22 0.61 0.67 5.44 3.74 3.97 4.74 0.4 1.06 2.7 5.44 0.58 7.85 2.39 7.16 6.35 1.13 
4.02 5.56 7.25 7.92 2.44 1.51 6.3 7.16 6.83 0.67 0.41 3.23 0.97 7.85 0.58 4.73 0.67 3.16 0.13 6.35 6.43 3.7 5.01 5.21 
6.64 0.55 1.65 4.54 3.87 0.25 7.28 6.72 3.57 5.29 1.76 1.1 2.51 5.95 2.63 1.51 6.46 0.53 5.99 7.66 3.26 4.41 1.64 0.79 
5.91 5.59 6.81 3.62 0.24 0.87 7 5.3 6.18 6.81 0.08 2.87 3.24 2.73 2.44 6.45 7.16 3.04 0.02 3 7.31 5.47 7.49 1.21 
3.56 6.77 6.58 0.47 2.78 5.98 4.67 3.14 4.47 0.52 1.48 0.02 4.36 7.4 2.45 4.59 0.57 4.95 1.44 3.83 0.75 7.85 3.5 1.98 
4 4 4 4 4 4 4 4 4 4 4 4 4 4 4 4 4 4 4 4 4 4 4 4 
7.87 3.35 1.12 6.36 6.03 4.07 1.19 6.93 0.66 6.11 4.78 5.51 7.38 7.2 4.46 1.02 2.62 3.63 3.61 6.84 0.83 6.05 1.27 6.32 
0.63 1.76 7.31 6.92 2.47 0.47 1.57 6.81 6.53 0.97 7.21 0.85 6.76 3.35 1.56 7.17 4.85 5.79 0.03 5.03 1.82 3.22 1.74 3.4 
1 1 1 1 1 1 1 1 1 1 1 1 1 1 1 1 1 1 1 1 1 1 1 1 
1 1 1 1 1 1 1 1 1 1 1 1 1 1 1 1 1 1 1 1 1 1 1 1 
1 1 1 1 1 1 1 1 1 1 1 1 1 1 1 1 1 1 1 1 1 1 1 1 
1 1 1 1 1 1 1 1 1 1 1 1 1 1 1 1 1 1 1 1 1 1 1 1 
1 1 1 1 1 1 1 1 1 1 1 1 1 1 1 1 1 1 1 1 1 1 1 1 
1 1 1 1 1 1 1 1 1 1 1 1 1 1 1 1 1 1 1 1 1 1 1 1 
1 1 1 1 1 1 1 1 1 1 1 1 1 1 1 1 1 1 1 1 1 1 1 1 
1 1 1 1 1 1 1 1 1 1 1 1 1 1 1 1 1 1 1 1 1 1 1 1 
1 1 1 1 1 1 1 1 1 1 1 1 1 1 1 1 1 1 1 1 1 1 1 1 
1 1 1 1 1 1 1 1 1 1 1 1 1 1 1 1 1 1 1 1 1 1 1 1 
1 1 1 1 1 1 1 1 1 1 1 1 1 1 1 1 1 1 1 1 1 1 1 1 
1 1 1 1 1 1 1 1 1 1 1 1 1 1 1 1 1 1 1 1 1 1 1 1 
0.01 0.01 0.01 0.01 0.01 0.01 0.01 0.01 0.01 0.01 0.01 0.01 0.01 0.01 0.01 0.01 0.01 0.01 0.01 0.01 0.01 0.01 0.01 0.01 
0.02 0.02 0.02 0.02 0.02 0.02 0.02 0.02 0.02 0.02 0.02 0.02 0.02 0.02 0.02 0.02 0.02 0.02 0.02 0.02 0.02 0.02 0.02 0.02 
0.03 0.03 0.03 0.03 0.03 0.03 0.03 0.03 0.03 0.03 0.03 0.03 0.03 0.03 0.03 0.03 0.03 0.03 0.03 0.03 0.03 0.03 0.03 0.03 
0.04 0.04 0.04 0.04 0.04 0.04 0.04 0.04 0.04 0.04 0.04 0.04 0.04 0.04 0.04 0.04 0.04 0.04 0.04 0.04 0.04 0.04 0.04 0.04 
0.05 0.05 0.05 0.05 0.05 0.05 0.05 0.05 0.05 0.05 0.05 0.05 0.05 0.05 0.05 0.05 0.05 0.05 0.05 0.05 0.05 0.05 0.05 0.05 
0.06 0.06 0.06 0.06 0.06 0.06 0.06 0.06 0.06 0.06 0.06 0.06 0.06 0.06 0.06 0.06 0.06 0.06 0.06 0.06 0.06 0.06 0.06 0.06 
0.07 0.07 0.07 0.07 0.07 0.07 0.07 0.07 0.07 0.07 0.07 0.07 0.07 0.07 0.07 0.07 0.07 0.07 0.07 0.07 0.07 0.07 0.07 0.07 
0.08 0.08 0.08 0.08 0.08 0.08 0.08 0.08 0.08 0.08 0.08 0.08 0.08 0.08 0.08 0.08 0.08 0.08 0.08 0.08 0.08 0.08 0.08 0.08 
0.09 0.09 0.09 0.09 0.09 0.09 0.09 0.09 0.09 0.09 0.09 0.09 0.09 0.09 0.09 0.09 0.09 0.09 0.09 0.09 0.09 0.09 0.09 0.09 
0.1 0.1 0.1 0.1 0.1 0.1 0.1 0.1 0.1 0.1 0.1 0.1 0.1 0.1 0.1 0.1 0.1 0.1 0.1 0.1 0.1 0.1 0.1 0.1 
0.5 0.5 0.5 0.5 0.5 0.5 0.5 0.5 0.5 0.5 0.5 0.5 0.5 0.5 0.5 0.5 0.5 0.5 0.5 0.5 0.5 0.5 0.5 0.5 
1 1 1 1 1 1 1 1 1 1 1 1 1 1 1 1 1 1 1 1 1 1 1 1 
